(declare-const term_to_project_onto Real)
(declare-const term_to_project_onto0 Real)
(assert (exists ((|k'?1| Int) (|i'?2| Int) (i?3 Int) (k?4 Int) (n?5 Int))
         (and (<= (- i?3) 0) (<= (- k?4) 0) (<= (+ (- n?5) 1) 0)
                (= (+ k?4 (- i?3)) 0) (<= (+ (- n?5) i?3 1) 0)
                (= (+ |k'?1| (- k?4) -1) 0) (= (+ |i'?2| (- i?3) -1) 0)
                (= term_to_project_onto0 (+ |i'?2| (- i?3)))
                (= term_to_project_onto (+ |k'?1| (- k?4))))))
(check-sat)
